GLPSOL--GLPK LP/MIP Solver 5.0
Parameter(s) specified in the command line:
 --lp ../modeles/20_224.lp --log 20_224.log
Reading problem data from '../modeles/20_224.lp'...
4561 rows, 9000 columns, 31420 non-zeros
4480 integer variables, all of which are binary
13587 lines were read
GLPK Integer Optimizer 5.0
4561 rows, 9000 columns, 31420 non-zeros
4480 integer variables, all of which are binary
Preprocessing...
4440 constraint coefficient(s) were reduced
4561 rows, 8980 columns, 31400 non-zeros
4480 integer variables, all of which are binary
Scaling...
 A: min|aij| =  3.189e-04  max|aij| =  4.000e+00  ratio =  1.254e+04
GM: min|aij| =  9.449e-02  max|aij| =  1.058e+01  ratio =  1.120e+02
EQ: min|aij| =  8.929e-03  max|aij| =  1.000e+00  ratio =  1.120e+02
2N: min|aij| =  5.102e-03  max|aij| =  1.696e+00  ratio =  3.324e+02
Constructing initial basis...
Size of triangular part is 4561
Solving LP relaxation...
GLPK Simplex Optimizer 5.0
4561 rows, 8980 columns, 31400 non-zeros
      0: obj =   4.000000000e+01 inf =   5.860e+02 (41)
Perturbing LP to avoid stalling [199]...
    379: obj =  -3.699716940e-02 inf =   0.000e+00 (0)
Removing LP perturbation [915]...
*   915: obj =  -4.468571429e+00 inf =   2.377e-15 (0) 1
OPTIMAL LP SOLUTION FOUND
Integer optimization begins...
Long-step dual simplex will be used
+   915: mip =     not found yet >=              -inf        (1; 0)
+  1319: mip =     not found yet >=  -4.468571429e+00        (403; 0)
+  1814: mip =     not found yet >=  -4.468571429e+00        (896; 0)
+  2069: >>>>>  -4.468571429e+00 >=  -4.468571429e+00 < 0.1% (1149; 0)
+  2069: mip =  -4.468571429e+00 >=     tree is empty   0.0% (0; 2297)
INTEGER OPTIMAL SOLUTION FOUND
Time used:   11.9 secs
Memory used: 13.2 Mb (13804070 bytes)
